proyfinal/src/viki/013/experimentInOfficeAgust.take6.output/bfbe356a-89cc-46cf-a5df-8760bcbed5ad.als.dat
{'cnf.clauses': '118081',
 'cnf.totvars': '69608',
 'conflict literals': '1095',
 'conflicts': '143',
 'decisions': '7260',
 'memused.mb': '18.63',
 'outcome': 'UNSAT',
 'propagations': '265316',
 'restarts': '2',
 'solver.msecs': 46,
 'task.msecs': 93}
