proyfinal/src/viki/013/experimentInOfficeAgust.take6.output/bfbe356a-89cc-46cf-a5df-8760bcbed5ad.als.out
Reading from standard input... Use '--help' for help.
============================[ Problem Statistics ]=============================
|                                                                             |
|  Number of variables:         69608                                         |
|  Number of clauses:          118081                                         |
|  Parse time:                   0.02 s                                       |
|                                                                             |
============================[ Search Statistics ]==============================
| Conflicts |          ORIGINAL         |          LEARNT          | Progress |
|           |    Vars  Clauses Literals |    Limit  Clauses Lit/Cl |          |
===============================================================================
|       100 |   55258    78492   194651 |    28780       94      8 | 20.615 % |
===============================================================================
restarts              : 2
conflicts             : 143            (3047 /sec)
decisions             : 7260           (0.00 % random) (154708 /sec)
propagations          : 265316         (5653803 /sec)
conflict literals     : 1095           (22.23 % deleted)
Memory used           : 18.63 MB
CPU time              : 0.046927 s

UNSATISFIABLE
